Mn4 O8                                  
   1.00000000000000     
     2.8575125535205879    0.0000006187254291   -0.0000002025692755
     0.0000001606170753    4.4983649229895786   -0.0000010879021255
     0.0000024370352135   -0.0000028035857921    9.2863653680406770
   Mn   O 
     4     8
Direct
  0.2500021615732493  0.0180286858210295  0.8655788931159165
  0.7500020575591577  0.9819683065476994  0.1344200631757388
  0.7500020939886340  0.5180316493123911  0.6344201850528037
  0.2500024020975715  0.4819716303611798  0.3655793266628322
  0.2499983189693253  0.7117885898646747  0.5375257663788844
  0.7499984283678529  0.2117808918832083  0.9624733226025555
  0.2499985712932258  0.7882113392459260  0.0375254706585793
  0.7499987108532764  0.2882195196768080  0.4624731625021568
  0.2499993097953350  0.1953140112612104  0.2168069355857654
  0.2499990968925800  0.3046857707964818  0.7168071122807191
  0.7499996283831294  0.6953192472537992  0.2831953056244672
  0.7499992202266696  0.8046813579756034  0.7831954563595716
 
  0.00000000E+00  0.00000000E+00  0.00000000E+00
  0.00000000E+00  0.00000000E+00  0.00000000E+00
  0.00000000E+00  0.00000000E+00  0.00000000E+00
  0.00000000E+00  0.00000000E+00  0.00000000E+00
  0.00000000E+00  0.00000000E+00  0.00000000E+00
  0.00000000E+00  0.00000000E+00  0.00000000E+00
  0.00000000E+00  0.00000000E+00  0.00000000E+00
  0.00000000E+00  0.00000000E+00  0.00000000E+00
  0.00000000E+00  0.00000000E+00  0.00000000E+00
  0.00000000E+00  0.00000000E+00  0.00000000E+00
  0.00000000E+00  0.00000000E+00  0.00000000E+00
  0.00000000E+00  0.00000000E+00  0.00000000E+00
