ALGO = All
EDIFF = 1e-06
EDIFFG = -0.03
ENAUG = 1040
ENCUT = 520
GGA = Pe
IBRION = 2
ICHARG = 0
ISIF = 3
ISMEAR = 0
ISPIN = 2
ISYM = 0
KSPACING = 0.22
LAECHG = True
LASPH = True
LCHARG = True
LELF = True
LMAXMIX = 4
LMIXTAU = True
LORBIT = 0
LREAL = False
LVHAR = True
LVTOT = True
LWAVE = True
MAGMOM = 1*-5.0 1*5.0 1*-5.0 1*5.0 8*0.0
METAGGA = R2scan
NCORE = 4
NELM = 200
NSW = 0
PREC = Accurate
SIGMA = 0.01
