Mn4 O8                                  
   1.00000000000000     
     2.8739881709041155   -0.0000038272858079   -0.0000031426974845
    -0.0000069095355242    4.6026721041659879    0.0000172941714377
    -0.0000070630459450    0.0000348064863303    9.3582838680514495
   Mn   O 
     4     8
Direct
  0.2499999715463730  0.0165745750607798  0.8649827248365725
  0.7500004415107639  0.9834750864121773  0.1350299006517446
  0.7500039586782137  0.5165294999779277  0.6350268739981288
  0.2499998244372250  0.4834232310589428  0.3649806546753069
  0.2500010982516301  0.7064489256042279  0.5378500392761580
  0.7499997026144669  0.2065061518808022  0.9621537331296111
  0.2499989674869667  0.7935503590952138  0.0378536282770128
  0.7500002182839793  0.2934880000422524  0.4621552638018542
  0.2499984030040920  0.1963934888727721  0.2168318776040934
  0.2500002294039021  0.3036111753767159  0.7168336836108580
  0.7499998340215512  0.6963444043340132  0.2831523515235972
  0.7499973507608360  0.8036561022841795  0.7831502686150458
 
  0.00000000E+00  0.00000000E+00  0.00000000E+00
  0.00000000E+00  0.00000000E+00  0.00000000E+00
  0.00000000E+00  0.00000000E+00  0.00000000E+00
  0.00000000E+00  0.00000000E+00  0.00000000E+00
  0.00000000E+00  0.00000000E+00  0.00000000E+00
  0.00000000E+00  0.00000000E+00  0.00000000E+00
  0.00000000E+00  0.00000000E+00  0.00000000E+00
  0.00000000E+00  0.00000000E+00  0.00000000E+00
  0.00000000E+00  0.00000000E+00  0.00000000E+00
  0.00000000E+00  0.00000000E+00  0.00000000E+00
  0.00000000E+00  0.00000000E+00  0.00000000E+00
  0.00000000E+00  0.00000000E+00  0.00000000E+00
