Mn4 O8                                  
   1.00000000000000     
     2.8739881709041155   -0.0000038272858079   -0.0000031426974845
    -0.0000069095355242    4.6026721041659879    0.0000172941714377
    -0.0000070630459450    0.0000348064863303    9.3582838680514495
   Mn   O 
     4     8
Direct
  0.2499999715463758  0.0165745750607780  0.8649827248365726
  0.7500004415107622 -0.0165249135878249  0.1350299006517459
  0.7500039586782152  0.5165294999779309  0.6350268739981313
  0.2499998244372273  0.4834232310589454  0.3649806546753075
  0.2500010982516309  0.7064489256042262  0.5378500392761562
  0.7499997026144658  0.2065061518808038  0.9621537331296145
  0.2499989674869680  0.7935503590952105  0.0378536282770110
  0.7500002182839794  0.2934880000422529  0.4621552638018558
  0.2499984030040951  0.1963934888727726  0.2168318776040961
  0.2500002294039017  0.3036111753767141  0.7168336836108609
  0.7499998340215482  0.6963444043340099  0.2831523515235989
  0.7499973507608376  0.8036561022841781  0.7831502686150464
 
  0.00000000E+00  0.00000000E+00  0.00000000E+00
  0.00000000E+00  0.00000000E+00  0.00000000E+00
  0.00000000E+00  0.00000000E+00  0.00000000E+00
  0.00000000E+00  0.00000000E+00  0.00000000E+00
  0.00000000E+00  0.00000000E+00  0.00000000E+00
  0.00000000E+00  0.00000000E+00  0.00000000E+00
  0.00000000E+00  0.00000000E+00  0.00000000E+00
  0.00000000E+00  0.00000000E+00  0.00000000E+00
  0.00000000E+00  0.00000000E+00  0.00000000E+00
  0.00000000E+00  0.00000000E+00  0.00000000E+00
  0.00000000E+00  0.00000000E+00  0.00000000E+00
  0.00000000E+00  0.00000000E+00  0.00000000E+00
