Mn4 O8                                  
   1.00000000000000     
     2.9163310000000000    0.0000000000000000    0.0000000000000000
    -0.0000010000000000    4.5809660000000001    0.0001450000000000
     0.0000020000000000    0.0003000000000000    9.4343930000000000
   Mn   O 
     4     8
Direct
  0.2499784582426522 -0.0433989380518287  0.8748885993305909
  0.7499894107768367  0.0435378755529505  0.1250227978549830
  0.7499469679036660  0.4565170458056597  0.6250284466349962
  0.2499956836207119  0.5433708483443703  0.3749511894146500
  0.2500050457493040  0.6933115694088565  0.5490748524511833
  0.7500206715567685  0.1934902517835408  0.9509063136051248
  0.2500040846504074  0.8066947206072130  0.0491095314070999
  0.7499945685193494  0.3064726698118752  0.4509011228265934
  0.2500070749232017  0.1950122782523298  0.2046496970728816
  0.2500329724369678  0.3050033896623843  0.7046531775766839
  0.7500172170063464  0.6949072083946465  0.2953896686970353
  0.7500078446137876  0.8050820804279996  0.7954256031281681
 
  0.00000000E+00  0.00000000E+00  0.00000000E+00
  0.00000000E+00  0.00000000E+00  0.00000000E+00
  0.00000000E+00  0.00000000E+00  0.00000000E+00
  0.00000000E+00  0.00000000E+00  0.00000000E+00
  0.00000000E+00  0.00000000E+00  0.00000000E+00
  0.00000000E+00  0.00000000E+00  0.00000000E+00
  0.00000000E+00  0.00000000E+00  0.00000000E+00
  0.00000000E+00  0.00000000E+00  0.00000000E+00
  0.00000000E+00  0.00000000E+00  0.00000000E+00
  0.00000000E+00  0.00000000E+00  0.00000000E+00
  0.00000000E+00  0.00000000E+00  0.00000000E+00
  0.00000000E+00  0.00000000E+00  0.00000000E+00
