Mn4 O8                                  
   1.00000000000000     
     2.9163310000000000    0.0000000000000000    0.0000000000000000
    -0.0000010000000000    4.5809660000000001    0.0001450000000000
     0.0000020000000000    0.0003000000000000    9.4343930000000000
   Mn   O 
     4     8
Direct
  0.2499914815734351 -0.0636830275870685  0.8768698313856723
  0.7499875064455398  0.0638236210231047  0.1230882928919762
  0.7500018172914804  0.4361956601979796  0.6230748589021543
  0.2499839108760765  0.5636660286529447  0.3768677062516818
  0.2500124479411431  0.6841537188063952  0.5551880572617867
  0.7500097441651030  0.1844273846423033  0.9447995531396787
  0.2499921840913056  0.8158614211737170  0.0551970206499052
  0.7499830762569359  0.3155553269620202  0.4448029711151562
  0.2499941888330887  0.2246721678029528  0.1982933342658896
  0.2500395572119930  0.2753321576682721  0.6982968373939902
  0.7499850954554448  0.7245015734695025  0.3017603856174442
  0.7500189898584536  0.7754949671878743  0.8017621511246554
 
  0.00000000E+00  0.00000000E+00  0.00000000E+00
  0.00000000E+00  0.00000000E+00  0.00000000E+00
  0.00000000E+00  0.00000000E+00  0.00000000E+00
  0.00000000E+00  0.00000000E+00  0.00000000E+00
  0.00000000E+00  0.00000000E+00  0.00000000E+00
  0.00000000E+00  0.00000000E+00  0.00000000E+00
  0.00000000E+00  0.00000000E+00  0.00000000E+00
  0.00000000E+00  0.00000000E+00  0.00000000E+00
  0.00000000E+00  0.00000000E+00  0.00000000E+00
  0.00000000E+00  0.00000000E+00  0.00000000E+00
  0.00000000E+00  0.00000000E+00  0.00000000E+00
  0.00000000E+00  0.00000000E+00  0.00000000E+00
