ALGO = Fast
EDIFF = 1e-06
EDIFFG = -0.03
ENAUG = 1040
ENCUT = 520
GGA = Pe
ICHARG = 0
ISMEAR = -5
ISPIN = 2
ISTART = 1
ISYM = 0
KPAR = 2
KSPACING = 0.22
LAECHG = True
LASPH = True
LCHARG = True
LDAU = False
LMAXMIX = 4
LORBIT = 11
LREAL = False
LVHAR = True
LWAVE = True
MAGMOM = 4*-0.0
NCORE = 4
NELM = 100
NSW = 0
PREC = Accurate
SIGMA = 0.05
