Mn4 O8                                  
   1.00000000000000     
     2.8543468094909108   -0.0000023805163844   -0.0000023081709336
    -0.0000084334408658    4.5449293375627722   -0.0000178605644560
     0.0000029932704715   -0.0000614537143068    9.1941397977507080
   Mn   O 
     4     8
Direct
  0.2500013808129609  0.0304832854333768  0.8646073146151565
  0.7500018144759011  0.9695174244336684  0.1353927124445917
  0.7500005754355428  0.5304908902592587  0.6353922001472370
  0.2500012748937124  0.4695101947741520  0.3646083799507593
  0.2499989959457025  0.7126249037735874  0.5339260081521289
  0.7500001850324125  0.2126130361523693  0.9660712881576572
  0.2499974876582982  0.7873876979410070  0.0339286119851678
  0.7499975799914509  0.2873764412197772  0.4660747556429499
  0.2500014093091352  0.1756115589910365  0.2218968735272924
  0.2499990973327613  0.3243912541818119  0.7218959928906798
  0.7500008592318181  0.6756064436869806  0.2781033529659354
  0.7499993398803255  0.8243878691529787  0.7781035095204558
 
  0.00000000E+00  0.00000000E+00  0.00000000E+00
  0.00000000E+00  0.00000000E+00  0.00000000E+00
  0.00000000E+00  0.00000000E+00  0.00000000E+00
  0.00000000E+00  0.00000000E+00  0.00000000E+00
  0.00000000E+00  0.00000000E+00  0.00000000E+00
  0.00000000E+00  0.00000000E+00  0.00000000E+00
  0.00000000E+00  0.00000000E+00  0.00000000E+00
  0.00000000E+00  0.00000000E+00  0.00000000E+00
  0.00000000E+00  0.00000000E+00  0.00000000E+00
  0.00000000E+00  0.00000000E+00  0.00000000E+00
  0.00000000E+00  0.00000000E+00  0.00000000E+00
  0.00000000E+00  0.00000000E+00  0.00000000E+00
