Li1 F1                                  
   1.00000000000000     
    -0.0000868698116033    2.0067557689758289    2.0067558156248766
     2.0067557656053574   -0.0000868631383485    2.0067558085959676
     2.0067558103536776    2.0067558068730209   -0.0000869077384705
   Li   F 
     1     1
Direct
  0.0000000081543980  0.0000000153995232  0.9999999845372388
  0.4999999918456020  0.4999999846004768  0.5000000154627612
 
  0.00000000E+00  0.00000000E+00  0.00000000E+00
  0.00000000E+00  0.00000000E+00  0.00000000E+00
