Li1 F1                                  
   1.00000000000000     
    -0.0001523663531896    1.9907765765840835    1.9907766868138241
     1.9907765750343458   -0.0001523594818535    1.9907766795243500
     1.9907766361134036    1.9907766304941008   -0.0001524202595825
   Li   F 
     1     1
Direct
  0.0000000094790817  0.0000000180310767  0.9999999776308562
  0.4999999905209183  0.4999999819689233  0.5000000223691438
 
  0.00000000E+00  0.00000000E+00  0.00000000E+00
  0.00000000E+00  0.00000000E+00  0.00000000E+00
