Ti2 V2 O6
1.0
   2.3203279999999999   -1.7107429999999999   -4.2629510000000002
   3.3037190000000001    1.6687520000000000    4.2345459999999999
  -0.0000120000000000   -2.8827900000000000    4.2629780000000004
Ti V O
2 2 6
direct
   0.1451170000000000    0.4353420000000000    0.8548880000000000 Ti
   0.8548850000000000    0.5646620000000000    0.1451060000000000 Ti
   0.6526710000000000    0.9580020000000000    0.3473360000000000 V
   0.3473360000000000    0.0419850000000000    0.6526750000000000 V
   0.0508510000000000    0.2638650000000000    0.2234000000000000 O
   0.4364320000000000    0.2638780000000000    0.9491470000000000 O
   0.7766040000000000    0.2638610000000000    0.5636010000000000 O
   0.2233910000000000    0.7361420000000000    0.4363960000000000 O
   0.5635660000000000    0.7361250000000000    0.0508510000000000 O
   0.9491470000000000    0.7361370000000000    0.7766010000000000 O
