Mn2 Cr4 O8
1.0
   1.7488600000000001    4.9600970000000002    3.0291100000000002
  -5.2657889999999998    0.0000080000000000    3.0402049999999998
   5.2593829999999997   -0.0045340000000000    3.0291070000000002
Mn Cr O
2 4 8
direct
   0.1250110000000000    0.1250130000000000    0.2500240000000000 Mn
   0.8750520000000001    0.8750510000000000    0.7501030000000000 Mn
   0.5001340000000000    0.9996880000000000    0.4998270000000000 Cr
   0.5001350000000000    0.5001380000000000    0.4998280000000000 Cr
   0.9996890000000000    0.5001370000000001    0.0002730000000000 Cr
   0.5000150000000000    0.5000130000000000    0.0000260000000000 Cr
   0.2640180000000000    0.2640170000000000    0.5280340000000000 O
   0.7362240000000000    0.2915640000000000    0.0277880000000000 O
   0.7362240000000000    0.7362240000000000    0.0277880000000000 O
   0.2915650000000000    0.7362240000000000    0.4724480000000000 O
   0.2637330000000000    0.2637330000000000    0.9722550000000000 O
   0.7085220000000000    0.2637330000000000    0.5274650000000000 O
   0.2637330000000000    0.7085220000000000    0.9722550000000000 O
   0.7359440000000000    0.7359440000000000    0.4718880000000000 O
