pymatgen with grid density = 1488 / number of atoms
0
Monkhorst
4 4 4
