Li1 Co1 O2                              
   1.00000000000000     
     4.7160416361652517   -1.4055658945191987   -0.0029096279908763
     4.7160416529978848    1.4055659538830927   -0.0029096054414223
     4.2986195426644933    0.0000000058321100    2.3955550811497957
   Li   Co   O 
     1     1     2
Direct
 -0.0000001875706987  0.9999998054436435  0.9999999078524184
  0.4999996956598882  0.4999996977008370  0.5000006032143473
  0.7601143425737954  0.7601143540711069  0.7601177764047811
  0.2398861493370079  0.2398861427844125  0.2398817125284461
 
  0.00000000E+00  0.00000000E+00  0.00000000E+00
  0.00000000E+00  0.00000000E+00  0.00000000E+00
  0.00000000E+00  0.00000000E+00  0.00000000E+00
  0.00000000E+00  0.00000000E+00  0.00000000E+00
