Mn4 O8                                  
   1.00000000000000     
     2.9163310000000000    0.0000000000000000    0.0000000000000000
    -0.0000010000000000    4.5809660000000001    0.0001450000000000
     0.0000020000000000    0.0003000000000000    9.4343930000000000
   Mn   O 
     4     8
Direct
  0.2499909280180788  0.1455226963054770  0.8502364596531322
  0.7500218376975312  0.8545000175665365  0.1497482927162039
  0.7499808276357385  0.6455153319520761  0.6497627419452030
  0.2499785077287342  0.3544621275334165  0.3502451496266303
  0.2499869378381305  0.7648294339989405  0.5648764917114164
  0.7500173345985388  0.2647836533049031  0.9351104061755393
  0.2500469229713289  0.7351962938945036  0.0648716896728914
  0.7499817715025685  0.2351674984177450  0.4351315667662803
  0.2500171096141273  0.1166252729208068  0.2069743166615226
  0.2499891988675458  0.3833506981126789  0.7069543058450236
  0.7499950246713425  0.6166976005098164  0.2930610489704719
  0.7499935988563493  0.8833503754830971  0.7930285302556825
 
  0.00000000E+00  0.00000000E+00  0.00000000E+00
  0.00000000E+00  0.00000000E+00  0.00000000E+00
  0.00000000E+00  0.00000000E+00  0.00000000E+00
  0.00000000E+00  0.00000000E+00  0.00000000E+00
  0.00000000E+00  0.00000000E+00  0.00000000E+00
  0.00000000E+00  0.00000000E+00  0.00000000E+00
  0.00000000E+00  0.00000000E+00  0.00000000E+00
  0.00000000E+00  0.00000000E+00  0.00000000E+00
  0.00000000E+00  0.00000000E+00  0.00000000E+00
  0.00000000E+00  0.00000000E+00  0.00000000E+00
  0.00000000E+00  0.00000000E+00  0.00000000E+00
  0.00000000E+00  0.00000000E+00  0.00000000E+00
