Mn4 O8                                  
   1.00000000000000     
     2.8753116314128273   -0.0000033436731565   -0.0000004809246130
    -0.0000066956034571    4.6516819981344009    0.0000123938282726
     0.0000001254802593    0.0000192814452797    9.2635518714609812
   Mn   O 
     4     8
Direct
  0.2499993446237170  0.0351135653497607  0.8654018581153906
  0.7499993538764755  0.9648905933497858  0.1345989348422520
  0.7500009059150941  0.5351121046941003  0.6345989022695235
  0.2500004528554243  0.4648865336394365  0.3654015330481428
  0.2500007121710652  0.7126770477865421  0.5305835527863110
  0.7499997471672586  0.2126774777683238  0.9694162572630205
  0.2499990252667033  0.7873235693797582  0.0305845942626917
  0.7500001947406716  0.2873236460453938  0.4694176810252984
  0.2499996444184163  0.1576337982041665  0.2263699160139225
  0.2500006612643730  0.3423655684707185  0.7263691758208282
  0.7500055210566998  0.6576310029860721  0.2736286003511594
  0.7499944366440872  0.8423660923259177  0.7736299942014426
 
  0.00000000E+00  0.00000000E+00  0.00000000E+00
  0.00000000E+00  0.00000000E+00  0.00000000E+00
  0.00000000E+00  0.00000000E+00  0.00000000E+00
  0.00000000E+00  0.00000000E+00  0.00000000E+00
  0.00000000E+00  0.00000000E+00  0.00000000E+00
  0.00000000E+00  0.00000000E+00  0.00000000E+00
  0.00000000E+00  0.00000000E+00  0.00000000E+00
  0.00000000E+00  0.00000000E+00  0.00000000E+00
  0.00000000E+00  0.00000000E+00  0.00000000E+00
  0.00000000E+00  0.00000000E+00  0.00000000E+00
  0.00000000E+00  0.00000000E+00  0.00000000E+00
  0.00000000E+00  0.00000000E+00  0.00000000E+00
