Mn4 O8                                  
   1.00000000000000     
     2.8753116314128273   -0.0000033436731565   -0.0000004809246130
    -0.0000066956034571    4.6516819981344009    0.0000123938282726
     0.0000001254802593    0.0000192814452797    9.2635518714609812
   Mn   O 
     4     8
Direct
  0.2499993446237191  0.0351135653497599  0.8654018581153905
  0.7499993538764748  0.9648905933497861  0.1345989348422511
  0.7500009059150926  0.5351121046940999  0.6345989022695228
  0.2500004528554257  0.4648865336394400  0.3654015330481397
  0.2500007121710625  0.7126770477865408  0.5305835527863119
  0.7499997471672617  0.2126774777683234  0.9694162572630228
  0.2499990252667060  0.7873235693797614  0.0305845942626909
  0.7500001947406681  0.2873236460453963  0.4694176810253010
  0.2499996444184139  0.1576337982041659  0.2263699160139219
  0.2500006612643761  0.3423655684707184  0.7263691758208276
  0.7500055210566995  0.6576310029860699  0.2736286003511625
  0.7499944366440858  0.8423660923259211  0.7736299942014413
 
  0.00000000E+00  0.00000000E+00  0.00000000E+00
  0.00000000E+00  0.00000000E+00  0.00000000E+00
  0.00000000E+00  0.00000000E+00  0.00000000E+00
  0.00000000E+00  0.00000000E+00  0.00000000E+00
  0.00000000E+00  0.00000000E+00  0.00000000E+00
  0.00000000E+00  0.00000000E+00  0.00000000E+00
  0.00000000E+00  0.00000000E+00  0.00000000E+00
  0.00000000E+00  0.00000000E+00  0.00000000E+00
  0.00000000E+00  0.00000000E+00  0.00000000E+00
  0.00000000E+00  0.00000000E+00  0.00000000E+00
  0.00000000E+00  0.00000000E+00  0.00000000E+00
  0.00000000E+00  0.00000000E+00  0.00000000E+00
