Mn4 O8
1.0
   2.9163310000000000    0.0000000000000000    0.0000000000000000
  -0.0000010000000000    4.5809660000000001    0.0001450000000000
   0.0000020000000000    0.0003000000000000    9.4343930000000000
Mn O
4 8
direct
   0.2500000000000000    0.0212650000000000    0.8650139999999999 Mn
   0.7499990000000000    0.9787410000000000    0.1349920000000000 Mn
   0.7500000000000000    0.5213100000000001    0.6349680000000000 Mn
   0.2500010000000000    0.4786890000000000    0.3650240000000000 Mn
   0.2500000000000000    0.7124470000000001    0.5369300000000000 O
   0.7500000000000000    0.2123230000000000    0.9630520000000000 O
   0.2500000000000000    0.7876780000000000    0.0369530000000000 O
   0.7500000000000000    0.2875510000000000    0.4630660000000000 O
   0.2500000000000000    0.1913220000000000    0.2163100000000000 O
   0.2500000000000000    0.3085400000000000    0.7162480000000000 O
   0.7500000000000000    0.6914580000000000    0.2837520000000000 O
   0.7500000000000000    0.8086770000000000    0.7836920000000001 O
