Mn4 O8                                  
   1.00000000000000     
     2.8543468094909108   -0.0000023805163844   -0.0000023081709336
    -0.0000084334408658    4.5449293375627722   -0.0000178605644560
     0.0000029932704715   -0.0000614537143068    9.1941397977507080
   Mn   O 
     4     8
Direct
  0.2500013808129577  0.0304832854333745  0.8646073146151562
  0.7500018144759036  0.9695174244336702  0.1353927124445883
  0.7500005754355398  0.5304908902592573  0.6353922001472362
  0.2500012748937132  0.4695101947741511  0.3646083799507566
  0.2499989959457011  0.7126249037735883  0.5339260081521277
  0.7500001850324112  0.2126130361523676  0.9660712881576559
  0.2499974876582983  0.7873876979410087  0.0339286119851706
  0.7499975799914531  0.2873764412197761  0.4660747556429525
  0.2500014093091378  0.1756115589910379  0.2218968735272896
  0.2499990973327606  0.3243912541818126  0.7218959928906781
  0.7500008592318190  0.6756064436869784  0.2781033529659341
  0.7499993398803255  0.8243878691529816  0.7781035095204589
 
  0.00000000E+00  0.00000000E+00  0.00000000E+00
  0.00000000E+00  0.00000000E+00  0.00000000E+00
  0.00000000E+00  0.00000000E+00  0.00000000E+00
  0.00000000E+00  0.00000000E+00  0.00000000E+00
  0.00000000E+00  0.00000000E+00  0.00000000E+00
  0.00000000E+00  0.00000000E+00  0.00000000E+00
  0.00000000E+00  0.00000000E+00  0.00000000E+00
  0.00000000E+00  0.00000000E+00  0.00000000E+00
  0.00000000E+00  0.00000000E+00  0.00000000E+00
  0.00000000E+00  0.00000000E+00  0.00000000E+00
  0.00000000E+00  0.00000000E+00  0.00000000E+00
  0.00000000E+00  0.00000000E+00  0.00000000E+00
