Mn4 O8                                  
   1.00000000000000     
     2.6734313393482894   -0.0000021416805597    0.0000019322320657
    -0.0000051367643793    4.7884560753639462    0.0004736527621827
    -0.0000046683902486    0.0010933138404879    9.0356578296954222
   Mn   O 
     4     8
Direct
  0.2500080811485471  0.0510634720893167  0.8577122429132141
  0.7499914279038975  0.9489276166063741  0.1422972203921334
  0.7500050639916773  0.5511667784379662  0.6423123020789067
  0.2499863379275925  0.4488431041408905  0.3576840705704564
  0.2499960011748018  0.7016201696552999  0.5224871844631781
  0.7500038361141894  0.2016007586786503  0.9774711296850394
  0.2500009948164952  0.7983700690950348  0.0225320901828084
  0.7499928881239346  0.2983757230985831  0.4774940776590829
  0.2499859934428156  0.1595721768000937  0.2333477357622109
  0.2500252355576640  0.3404918434377946  0.7333706129870380
  0.7499790537047853  0.6595142225404783  0.2666457764672014
  0.7500250860935994  0.8404550654195151  0.7666465568387065
 
  0.00000000E+00  0.00000000E+00  0.00000000E+00
  0.00000000E+00  0.00000000E+00  0.00000000E+00
  0.00000000E+00  0.00000000E+00  0.00000000E+00
  0.00000000E+00  0.00000000E+00  0.00000000E+00
  0.00000000E+00  0.00000000E+00  0.00000000E+00
  0.00000000E+00  0.00000000E+00  0.00000000E+00
  0.00000000E+00  0.00000000E+00  0.00000000E+00
  0.00000000E+00  0.00000000E+00  0.00000000E+00
  0.00000000E+00  0.00000000E+00  0.00000000E+00
  0.00000000E+00  0.00000000E+00  0.00000000E+00
  0.00000000E+00  0.00000000E+00  0.00000000E+00
  0.00000000E+00  0.00000000E+00  0.00000000E+00
