Mn4 O8                                  
   1.00000000000000     
     2.6734313393482894   -0.0000021416805597    0.0000019322320657
    -0.0000051367643793    4.7884560753639462    0.0004736527621827
    -0.0000046683902486    0.0010933138404879    9.0356578296954222
   Mn   O 
     4     8
Direct
  0.2500080811485503  0.0510634720893179  0.8577122429132160
  0.7499914279039004  0.9489276166063760  0.1422972203921304
  0.7500050639916793  0.5511667784379668  0.6423123020789063
  0.2499863379275951  0.4488431041408916  0.3576840705704569
  0.2499960011748001  0.7016201696552997  0.5224871844631807
  0.7500038361141890  0.2016007586786515  0.9774711296850427
  0.2500009948164958  0.7983700690950357  0.0225320901828070
  0.7499928881239342  0.2983757230985802  0.4774940776590810
  0.2499859934428130  0.1595721768000971  0.2333477357622087
  0.2500252355576649  0.3404918434377961  0.7333706129870379
  0.7499790537047843  0.6595142225404800  0.2666457764672003
  0.7500250860936006  0.8404550654195120  0.7666465568387082
 
  0.00000000E+00  0.00000000E+00  0.00000000E+00
  0.00000000E+00  0.00000000E+00  0.00000000E+00
  0.00000000E+00  0.00000000E+00  0.00000000E+00
  0.00000000E+00  0.00000000E+00  0.00000000E+00
  0.00000000E+00  0.00000000E+00  0.00000000E+00
  0.00000000E+00  0.00000000E+00  0.00000000E+00
  0.00000000E+00  0.00000000E+00  0.00000000E+00
  0.00000000E+00  0.00000000E+00  0.00000000E+00
  0.00000000E+00  0.00000000E+00  0.00000000E+00
  0.00000000E+00  0.00000000E+00  0.00000000E+00
  0.00000000E+00  0.00000000E+00  0.00000000E+00
  0.00000000E+00  0.00000000E+00  0.00000000E+00
