Li2 Mn2 Fe2 O8
1.0
-2.938751 2.982403 4.238432
2.938751 -2.982403 4.238432
2.938751 2.982403 -4.238432
Li Mn Fe O
2 2 2 8
direct
0.135982 0.385982 0.750000 Li
0.864018 0.614018 0.250000 Li
0.500000 0.000000 0.000000 Mn
0.500000 0.500000 0.500000 Mn
0.000000 0.000000 0.000000 Fe
0.500000 0.000000 0.500000 Fe
0.271020 0.789010 0.017990 O
0.273711 0.243236 0.030475 O
0.712761 0.243236 0.469525 O
0.271020 0.253030 0.482010 O
0.728980 0.746970 0.517990 O
0.726289 0.756764 0.969525 O
0.287239 0.756764 0.530475 O
0.728980 0.210990 0.982010 O
