Li8 Mn13 Fe3 O32
1.0
-8.304328 0.000000 0.000000
-0.081513 -8.662212 0.000000
4.075360 4.250327 8.275534
Li Mn Fe O
8 13 3 32
direct
0.564509 0.801943 0.875408 Li
0.066135 0.302138 0.876869 Li
0.186422 0.446009 0.623718 Li
0.685963 0.947567 0.623517 Li
0.314037 0.052433 0.376483 Li
0.813578 0.553991 0.376282 Li
0.435491 0.198057 0.124592 Li
0.933865 0.697862 0.123131 Li
0.000000 0.000000 0.000000 Mn
0.500000 0.500000 0.000000 Mn
0.125440 0.874947 0.749747 Mn
0.625125 0.371235 0.749154 Mn
0.875713 0.623944 0.749879 Mn
0.375361 0.124464 0.750684 Mn
0.500000 0.500000 0.500000 Mn
0.749485 0.247890 0.500708 Mn
0.250515 0.752110 0.499292 Mn
0.124287 0.376056 0.250121 Mn
0.624639 0.875536 0.249316 Mn
0.374875 0.628765 0.250846 Mn
0.874560 0.125053 0.250253 Mn
0.249826 0.749408 0.998864 Fe
0.750174 0.250592 0.001136 Fe
0.000000 0.000000 0.500000 Fe
0.998539 0.766609 0.984604 O
0.728775 0.482424 0.987109 O
0.499123 0.266779 0.986207 O
0.229395 0.983039 0.986643 O
0.401288 0.387097 0.766551 O
0.901619 0.888849 0.766979 O
0.614095 0.151027 0.757700 O
0.113192 0.651645 0.755095 O
0.349258 0.860795 0.732653 O
0.137432 0.097397 0.744173 O
0.849932 0.359733 0.734028 O
0.632889 0.593391 0.737549 O
0.250102 0.984352 0.514907 O
0.524079 0.258530 0.515554 O
0.020423 0.767709 0.513625 O
0.747604 0.481791 0.514868 O
0.749898 0.015648 0.485093 O
0.979577 0.232291 0.486375 O
0.475921 0.741470 0.484446 O
0.252396 0.518209 0.485132 O
0.862568 0.902603 0.255827 O
0.367111 0.406609 0.262451 O
0.650742 0.139205 0.267347 O
0.150068 0.640267 0.265972 O
0.098381 0.111151 0.233021 O
0.886808 0.348355 0.244905 O
0.385905 0.848973 0.242300 O
0.598712 0.612903 0.233449 O
0.001461 0.233391 0.015396 O
0.770605 0.016961 0.013357 O
0.271225 0.517576 0.012891 O
0.500877 0.733221 0.013793 O
