Mn2 O2
1.0
   3.0965936557875788    0.0000000000000000    0.0000000000000002
   0.0000000000000005    3.1546052865504883    0.0000000000000002
   0.0000000000000000    0.0000000000000000    4.3970589100006130
Mn O
2 2
direct
   0.7716827500000000    0.0000000000000000    0.0000000000000000 Mn2+
   0.2283172500000000    0.5000000000000000    0.5000000000000000 Mn2+
   0.2637126900000000    0.5000000000000000    0.0000000000000000 O2-
   0.7362873100000000    0.0000000000000000    0.5000000000000000 O2-
