Li2 Mn4 O8
1.0
0.000000 4.211237 4.211237
4.211237 0.000000 4.211237
4.211237 4.211237 0.000000
Li Mn O
2 4 8
direct
0.500000 0.500000 0.500000 Li
0.750000 0.750000 0.750000 Li
0.625000 0.125000 0.125000 Mn
0.125000 0.625000 0.125000 Mn
0.125000 0.125000 0.625000 Mn
0.125000 0.125000 0.125000 Mn
0.914424 0.361859 0.361859 O
0.361859 0.914424 0.361859 O
0.361859 0.361859 0.914424 O
0.361859 0.361859 0.361859 O
0.335576 0.888141 0.888141 O
0.888141 0.335576 0.888141 O
0.888141 0.888141 0.335576 O
0.888141 0.888141 0.888141 O
