Al2 N2
1.0
   1.5644329720529768   -2.7096773239562140    0.0000000052687924
   1.5644330045492880    2.7096773423105733   -0.0000000093320804
  -0.0000000060286613   -0.0000000113691710    5.0158283029367956
Al N
2 2
direct
   0.6666667732499242    0.3333332938171003    0.4991352024832462 Al
   0.3333332243652120    0.6666667076944037    0.9991352176468049 Al
   0.6666665589422142    0.3333333577291536    0.8808647986314212 N
   0.3333334434426496    0.6666666407593352    0.3808647812385327 N
