Mn4 O8                                  
   1.00000000000000     
     2.9163310000000000    0.0000000000000000    0.0000000000000000
    -0.0000010000000000    4.5809660000000001    0.0001450000000000
     0.0000020000000000    0.0003000000000000    9.4343930000000000
   Mn   O 
     4     8
Direct
  0.2499908596651117  0.1645697317118845  0.8483362011067374
  0.7500238425222864  0.8353781525615094  0.1516760621831314
  0.7499920113343355  0.6647024821764536  0.6516076149542194
  0.2499844793578030  0.3353727834874883  0.3483417428933059
  0.2500192806569025  0.7708656044876876  0.5656302566341619
  0.7499986454984376  0.2708238840159857  0.9343492845318151
  0.2500279567876421  0.7291354841350456  0.0656619936746882
  0.7499969201773703  0.2291219548286058  0.4343731233699037
  0.2499923031617789  0.1050441106421663  0.2097621242208146
  0.2499896322939507  0.3949812347885375  0.7097804664554676
  0.7500071306038697  0.6050566905576609  0.2902778210980809
  0.7499769379405123  0.8949488866069740  0.7902043088776646
 
  0.00000000E+00  0.00000000E+00  0.00000000E+00
  0.00000000E+00  0.00000000E+00  0.00000000E+00
  0.00000000E+00  0.00000000E+00  0.00000000E+00
  0.00000000E+00  0.00000000E+00  0.00000000E+00
  0.00000000E+00  0.00000000E+00  0.00000000E+00
  0.00000000E+00  0.00000000E+00  0.00000000E+00
  0.00000000E+00  0.00000000E+00  0.00000000E+00
  0.00000000E+00  0.00000000E+00  0.00000000E+00
  0.00000000E+00  0.00000000E+00  0.00000000E+00
  0.00000000E+00  0.00000000E+00  0.00000000E+00
  0.00000000E+00  0.00000000E+00  0.00000000E+00
  0.00000000E+00  0.00000000E+00  0.00000000E+00
