Mn4 O8                                  
   1.00000000000000     
     2.9163310000000000    0.0000000000000000    0.0000000000000000
    -0.0000010000000000    4.5809660000000001    0.0001450000000000
     0.0000020000000000    0.0003000000000000    9.4343930000000000
   Mn   O 
     4     8
Direct
  0.2495687574093514  0.1642553226994687  0.8480186533619632
  0.7497702334241708  0.8343387319470474  0.1522333403296427
  0.7488693146077623  0.6646143455713640  0.6515537991599966
  0.2494682132730065  0.3342969040893485  0.3482718100298428
  0.2509367058098207  0.7722091054293682  0.5674224766831376
  0.7504385863852816  0.2725904652139538  0.9329175219979715
  0.2501518976044710  0.7274768670166800  0.0676738597917379
  0.7505527950531026  0.2278362716759331  0.4319183111957644
  0.2500643259018455  0.1075937701012264  0.2083625041997118
  0.2500474387779162  0.3936455813605078  0.7088502095145836
  0.7500194206001035  0.6073046231597515  0.2915791684845060
  0.7501123111531679  0.8938390117353494  0.7911993452511322
 
  0.00000000E+00  0.00000000E+00  0.00000000E+00
  0.00000000E+00  0.00000000E+00  0.00000000E+00
  0.00000000E+00  0.00000000E+00  0.00000000E+00
  0.00000000E+00  0.00000000E+00  0.00000000E+00
  0.00000000E+00  0.00000000E+00  0.00000000E+00
  0.00000000E+00  0.00000000E+00  0.00000000E+00
  0.00000000E+00  0.00000000E+00  0.00000000E+00
  0.00000000E+00  0.00000000E+00  0.00000000E+00
  0.00000000E+00  0.00000000E+00  0.00000000E+00
  0.00000000E+00  0.00000000E+00  0.00000000E+00
  0.00000000E+00  0.00000000E+00  0.00000000E+00
  0.00000000E+00  0.00000000E+00  0.00000000E+00
