ALGO = Fast
EDIFF = 1e-05
EDIFFG = -0.03
ENAUG = 800
ENCUT = 400
GGA = Pe
IBRION = 2
ISIF = 2
ISMEAR = 0
ISPIN = 1
ISYM = 0
LASPH = True
LMAXMIX = 4
LORBIT = 11
LREAL = Auto
LWAVE = True
MAGMOM = 12*0.0
NCORE = 4
NELM = 40
NSW = 199
PREC = Accurate
SIGMA = 0.01
