Mn4 O8                                  
   1.00000000000000     
     2.6886974245555177    0.0000095660298106    0.0000027039231667
     0.0000158367104571    4.8207185468786484    0.0006481114377072
    -0.0000021570929747    0.0014158505141417    9.1635706596581539
   Mn   O 
     4     8
Direct
  0.2500121439311513  0.0505876803414651  0.8578843315853604
  0.7500030096074539  0.9494636708921220  0.1420878476135172
  0.7499969374650917  0.5506418553931596  0.6420570284019718
  0.2499861246789834  0.4492855061330374  0.3579247694542218
  0.2500005845332680  0.7020825300772486  0.5217507699815158
  0.7500096719242535  0.2019686341153673  0.9781565826704082
  0.2499965825320203  0.7979535585839699  0.0218450930064833
  0.7499886813739636  0.2979277891440546  0.4782744906800502
  0.2499729000842734  0.1598001386036998  0.2333664042046877
  0.2500324841125092  0.3402231598093124  0.7333470747024293
  0.7499729901909262  0.6598301863801339  0.2666773138839531
  0.7500278895661054  0.8402362905264269  0.7666292938153774
 
  0.00000000E+00  0.00000000E+00  0.00000000E+00
  0.00000000E+00  0.00000000E+00  0.00000000E+00
  0.00000000E+00  0.00000000E+00  0.00000000E+00
  0.00000000E+00  0.00000000E+00  0.00000000E+00
  0.00000000E+00  0.00000000E+00  0.00000000E+00
  0.00000000E+00  0.00000000E+00  0.00000000E+00
  0.00000000E+00  0.00000000E+00  0.00000000E+00
  0.00000000E+00  0.00000000E+00  0.00000000E+00
  0.00000000E+00  0.00000000E+00  0.00000000E+00
  0.00000000E+00  0.00000000E+00  0.00000000E+00
  0.00000000E+00  0.00000000E+00  0.00000000E+00
  0.00000000E+00  0.00000000E+00  0.00000000E+00
