Mn4 O8                                  
   1.00000000000000     
     2.6886974245555177    0.0000095660298106    0.0000027039231667
     0.0000158367104571    4.8207185468786484    0.0006481114377072
    -0.0000021570929747    0.0014158505141417    9.1635706596581539
   Mn   O 
     4     8
Direct
  0.2500121439311526  0.0505876803414631  0.8578843315853596
  0.7500030096074531  0.9494636708921239  0.1420878476135204
  0.7499969374650918  0.5506418553931605  0.6420570284019711
  0.2499861246789812  0.4492855061330402  0.3579247694542193
  0.2500005845332656  0.7020825300772505  0.5217507699815191
  0.7500096719242527  0.2019686341153688  0.9781565826704086
  0.2499965825320193  0.7979535585839724  0.0218450930064863
  0.7499886813739667  0.2979277891440530  0.4782744906800481
  0.2499729000842700  0.1598001386036970  0.2333664042046912
  0.2500324841125118  0.3402231598093112  0.7333470747024319
  0.7499729901909268  0.6598301863801311  0.2666773138839520
  0.7500278895661074  0.8402362905264256  0.7666292938153760
 
  0.00000000E+00  0.00000000E+00  0.00000000E+00
  0.00000000E+00  0.00000000E+00  0.00000000E+00
  0.00000000E+00  0.00000000E+00  0.00000000E+00
  0.00000000E+00  0.00000000E+00  0.00000000E+00
  0.00000000E+00  0.00000000E+00  0.00000000E+00
  0.00000000E+00  0.00000000E+00  0.00000000E+00
  0.00000000E+00  0.00000000E+00  0.00000000E+00
  0.00000000E+00  0.00000000E+00  0.00000000E+00
  0.00000000E+00  0.00000000E+00  0.00000000E+00
  0.00000000E+00  0.00000000E+00  0.00000000E+00
  0.00000000E+00  0.00000000E+00  0.00000000E+00
  0.00000000E+00  0.00000000E+00  0.00000000E+00
