Li4 Mn1 Fe3 O8
1.0
2.954724 5.241883 0.000000
-2.954724 5.241883 0.000000
0.000000 3.385916 4.908960
Li Mn Fe O
4 1 3 8
direct
0.000000 0.500000 0.500000 Li
0.000000 0.000000 0.000000 Li
0.500000 0.000000 0.500000 Li
0.500000 0.500000 0.000000 Li
0.000000 0.000000 0.500000 Mn
0.000000 0.500000 0.000000 Fe
0.500000 0.500000 0.500000 Fe
0.500000 0.000000 0.000000 Fe
0.259676 0.259676 0.750478 O
0.234387 0.749022 0.739083 O
0.250978 0.765613 0.260917 O
0.258382 0.258382 0.224083 O
0.741618 0.741618 0.775917 O
0.749022 0.234387 0.739083 O
0.765613 0.250978 0.260917 O
0.740324 0.740324 0.249522 O
