Mn4 O8                                  
   1.00000000000000     
     2.8586102812852667    0.0000004357878059   -0.0000007328692237
    -0.0000006649341014    4.5689923675057535    0.0000004116511257
    -0.0000006672726488   -0.0000045280792507    9.1751666322213996
   Mn   O 
     4     8
Direct
  0.2500021554207521  0.0370688993037831  0.8655961147448821
  0.7500016512240819  0.9629309979700054  0.1344038441326489
  0.7500017302600526  0.5370685627344187  0.6344036285059858
  0.2500026479066335  0.4629313278128464  0.3655963105625162
  0.2499999257374341  0.7158511827344043  0.5302414557304616
  0.7499988072926413  0.2158504373964050  0.9697587784794095
  0.2499988997085651  0.7841500966156758  0.0302414745536765
  0.7499999575809397  0.2841500878787286  0.4697585404842926
  0.2499992577465093  0.1570158794208538  0.2260074369331448
  0.2499981757884981  0.3429845525243564  0.7260067594391444
  0.7499981876462911  0.6570160286383029  0.2739934570845364
  0.7499986036875796  0.8429829469701957  0.7739931993492917
 
  0.00000000E+00  0.00000000E+00  0.00000000E+00
  0.00000000E+00  0.00000000E+00  0.00000000E+00
  0.00000000E+00  0.00000000E+00  0.00000000E+00
  0.00000000E+00  0.00000000E+00  0.00000000E+00
  0.00000000E+00  0.00000000E+00  0.00000000E+00
  0.00000000E+00  0.00000000E+00  0.00000000E+00
  0.00000000E+00  0.00000000E+00  0.00000000E+00
  0.00000000E+00  0.00000000E+00  0.00000000E+00
  0.00000000E+00  0.00000000E+00  0.00000000E+00
  0.00000000E+00  0.00000000E+00  0.00000000E+00
  0.00000000E+00  0.00000000E+00  0.00000000E+00
  0.00000000E+00  0.00000000E+00  0.00000000E+00
