Mn4 O8                                  
   1.00000000000000     
     2.8586102812852667    0.0000004357878059   -0.0000007328692237
    -0.0000006649341014    4.5689923675057535    0.0000004116511257
    -0.0000006672726488   -0.0000045280792507    9.1751666322213996
   Mn   O 
     4     8
Direct
  0.2500021554207498  0.0370688993037810  0.8655961147448805
  0.7500016512240822  0.9629309979700079  0.1344038441326457
  0.7500017302600542  0.5370685627344181  0.6344036285059832
  0.2500026479066353  0.4629313278128468  0.3655963105625162
  0.2499999257374338  0.7158511827344062  0.5302414557304617
  0.7499988072926411  0.2158504373964061  0.9697587784794104
  0.2499988997085642  0.7841500966156770  0.0302414745536762
  0.7499999575809414  0.2841500878787254  0.4697585404842909
  0.2499992577465120  0.1570158794208541  0.2260074369331428
  0.2499981757885008  0.3429845525243587  0.7260067594391446
  0.7499981876462942  0.6570160286383022  0.2739934570845392
  0.7499986036875769  0.8429829469701923  0.7739931993492921
 
  0.00000000E+00  0.00000000E+00  0.00000000E+00
  0.00000000E+00  0.00000000E+00  0.00000000E+00
  0.00000000E+00  0.00000000E+00  0.00000000E+00
  0.00000000E+00  0.00000000E+00  0.00000000E+00
  0.00000000E+00  0.00000000E+00  0.00000000E+00
  0.00000000E+00  0.00000000E+00  0.00000000E+00
  0.00000000E+00  0.00000000E+00  0.00000000E+00
  0.00000000E+00  0.00000000E+00  0.00000000E+00
  0.00000000E+00  0.00000000E+00  0.00000000E+00
  0.00000000E+00  0.00000000E+00  0.00000000E+00
  0.00000000E+00  0.00000000E+00  0.00000000E+00
  0.00000000E+00  0.00000000E+00  0.00000000E+00
