ALGO = All
EDIFF = 1e-06
EDIFFG = -0.03
ENAUG = 1040
ENCUT = 520
GGA = Pe
IBRION = 2
ISIF = 3
ISMEAR = 0
ISPIN = 2
ISYM = 0
KSPACING = 0.22
LAECHG = True
LASPH = True
LCHARG = True
LELF = True
LMAXMIX = 4
LMIXTAU = True
LORBIT = 11
LREAL = Auto
LVTOT = True
LWAVE = True
MAGMOM = 4*5.0 8*0.6
METAGGA = R2scan
NCORE = 4
NELM = 200
NSW = 199
PREC = Accurate
SIGMA = 0.01
