ALGO = All
EDIFF = 1e-06
EDIFFG = -0.03
ENAUG = 1040
ENCUT = 520
IBRION = 2
ISIF = 3
ISMEAR = 0
ISPIN = 1
ISTART = 0
ISYM = -1
KPAR = 12
KSPACING = 0.22
LAECHG = True
LASPH = True
LCHARG = True
LELF = True
LMIXTAU = True
LORBIT = 11
LREAL = Auto
LVTOT = True
LWAVE = True
MAGMOM = 4*0.0
METAGGA = R2scan
NBANDS = 16
NCORE = 4
NEDOS = 800
NELM = 200
NSW = 0
PREC = Accurate
SIGMA = 0.01
