ALGO = All
EDIFF = 1e-05
EDIFFG = -0.02
ENAUG = 1360
ENCUT = 680
IBRION = 2
ICHARG = 11
ISIF = 3
ISMEAR = 2
ISPIN = 2
KSPACING = 0.22
LAECHG = True
LASPH = True
LCHARG = True
LELF = True
LMAXMIX = 4
LMIXTAU = True
LORBIT = 0
LREAL = False
LVHAR = True
LVTOT = True
LWAVE = True
MAGMOM = 4*0.0 1*-5.0 1*5.0 2*-5.0 1*5.0 1*-5.0 2*5.0 16*0.0
METAGGA = R2scan
NELM = 200
NSW = 0
PREC = Accurate
SIGMA = 0.2
