Li4 Ti2 Mn3 Fe3 O16
1.0
-5.892245 0.000000 0.000000
2.911984 5.148002 0.000000
-0.056031 -0.203120 -9.524957
Li Ti Mn Fe O
4 2 3 3 16
direct
0.664038 0.321341 0.897474 Li
0.998796 0.004187 0.994246 Li
0.998843 0.007179 0.494616 Li
0.337681 0.662033 0.396422 Li
0.667944 0.340232 0.494286 Ti
0.332181 0.664424 0.994638 Ti
0.829933 0.173213 0.215471 Mn
0.660560 0.828336 0.713719 Mn
0.168777 0.343909 0.716055 Mn
0.828643 0.659817 0.214552 Fe
0.340309 0.171729 0.215048 Fe
0.174042 0.835153 0.716058 Fe
0.834000 0.672070 0.593047 O
0.524748 0.480422 0.346640 O
0.669904 0.324579 0.105249 O
0.995879 0.007611 0.306589 O
0.996935 0.012386 0.805345 O
0.336354 0.172482 0.596990 O
0.964056 0.472858 0.337446 O
0.532642 0.039978 0.339957 O
0.164053 0.828405 0.088735 O
0.854002 0.197951 0.592385 O
0.482969 0.952182 0.843922 O
0.035977 0.512524 0.837779 O
0.335834 0.656302 0.608682 O
0.663805 0.837531 0.095718 O
0.452080 0.488369 0.847658 O
0.155315 0.333097 0.099115 O
