Mn4 O8                                  
   1.00000000000000     
     2.8575125535205879    0.0000006187254291   -0.0000002025692755
     0.0000001606170753    4.4983649229895786   -0.0000010879021255
     0.0000024370352135   -0.0000028035857921    9.2863653680406770
   Mn   O 
     4     8
Direct
  0.2500021615732487  0.0180286858210294  0.8655788931159154
  0.7500020575591574  0.9819683065477024  0.1344200631757376
  0.7500020939886373  0.5180316493123900  0.6344201850528003
  0.2500024020975721  0.4819716303611814  0.3655793266628353
  0.2499983189693223  0.7117885898646727  0.5375257663788827
  0.7499984283678536  0.2117808918832085  0.9624733226025529
  0.2499985712932223  0.7882113392459231  0.0375254706585758
  0.7499987108532737  0.2882195196768098  0.4624731625021557
  0.2499993097953355  0.1953140112612069  0.2168069355857621
  0.2499990968925807  0.3046857707964802  0.7168071122807212
  0.7499996283831265  0.6953192472537992  0.2831953056244699
  0.7499992202266693  0.8046813579756011  0.7831954563595742
 
  0.00000000E+00  0.00000000E+00  0.00000000E+00
  0.00000000E+00  0.00000000E+00  0.00000000E+00
  0.00000000E+00  0.00000000E+00  0.00000000E+00
  0.00000000E+00  0.00000000E+00  0.00000000E+00
  0.00000000E+00  0.00000000E+00  0.00000000E+00
  0.00000000E+00  0.00000000E+00  0.00000000E+00
  0.00000000E+00  0.00000000E+00  0.00000000E+00
  0.00000000E+00  0.00000000E+00  0.00000000E+00
  0.00000000E+00  0.00000000E+00  0.00000000E+00
  0.00000000E+00  0.00000000E+00  0.00000000E+00
  0.00000000E+00  0.00000000E+00  0.00000000E+00
  0.00000000E+00  0.00000000E+00  0.00000000E+00
