Mg2 Cr4 S8
1.0
0.000000 5.101452 5.101452
5.101452 0.000000 5.101452
5.101452 5.101452 0.000000
Mg Cr S
2 4 8
direct
0.750000 0.750000 0.750000 Mg
0.500000 0.500000 0.500000 Mg
0.125000 0.625000 0.125000 Cr
0.125000 0.125000 0.625000 Cr
0.625000 0.125000 0.125000 Cr
0.125000 0.125000 0.125000 Cr
0.888281 0.335158 0.888281 S
0.361719 0.361719 0.914842 S
0.361719 0.361719 0.361719 S
0.914842 0.361719 0.361719 S
0.888281 0.888281 0.888281 S
0.335158 0.888281 0.888281 S
0.361719 0.914842 0.361719 S
0.888281 0.888281 0.335158 S
