Li4 Ti4 Mn4 O16
1.0
3.178130 5.185459 -0.143616
-3.178075 1.592936 4.936809
5.956205 -3.355415 4.745272
Li Ti Mn O
4 4 4 16
direct
0.249508 0.999510 0.125004 Li
0.749603 0.499581 0.624990 Li
0.749567 0.999519 0.874988 Li
0.249557 0.499551 0.374975 Li
0.499552 0.000780 0.499191 Ti
0.999717 0.500755 0.999318 Ti
0.751039 0.749629 0.250585 Ti
0.251064 0.249478 0.750656 Ti
0.249725 0.750242 0.749175 Mn
0.500300 0.499744 0.000858 Mn
0.749610 0.250366 0.249186 Mn
0.000172 0.999867 0.500869 Mn
0.532516 0.989262 0.260491 O
0.032674 0.489232 0.760537 O
0.739215 0.782688 0.489487 O
0.239265 0.282536 0.989524 O
0.260611 0.217765 0.511066 O
0.760647 0.717762 0.011063 O
0.467734 0.010614 0.738941 O
0.967738 0.510660 0.238964 O
0.732285 0.233975 0.482768 O
0.232576 0.733689 0.982980 O
0.983907 0.982771 0.267116 O
0.484147 0.482518 0.767213 O
0.267117 0.766507 0.515818 O
0.767251 0.266454 0.015834 O
0.016460 0.017273 0.734242 O
0.516444 0.517272 0.234159 O
