Li1 F1                                  
   1.00000000000000     
     0.0000035601352008    2.0288179646728697    2.0288179235371513
     2.0288179587885438    0.0000035665349680    2.0288179168679994
     2.0288179809892952    2.0288179804614304    0.0000035442709893
   Li   F 
     1     1
Direct
  0.0000000063451482  0.0000000118054424 -0.0000000060305934
  0.4999999936548518  0.4999999881945575  0.5000000060305935
 
  0.00000000E+00  0.00000000E+00  0.00000000E+00
  0.00000000E+00  0.00000000E+00  0.00000000E+00
