ALGO = Fast
EDIFF = 1e-06
EDIFFG = -0.03
ENAUG = 1040
ENCUT = 520
GGA = Pe
IBRION = 2
ISIF = 3
ISMEAR = 0
ISPIN = 1
ISYM = 0
KSPACING = 0.22
LASPH = True
LORBIT = 11
LREAL = Auto
LWAVE = True
MAGMOM = 2*0.0
NCORE = 4
NELM = 100
NSW = 199
PREC = Accurate
SIGMA = 0.01
