pymatgen with grid density = 11625 / number of atoms
0
Gamma
9 9 9
