ALGO = All
EDIFF = 1e-06
EDIFFG = -0.03
ENAUG = 1040
ENCUT = 520
GGA = Pe
HFSCREEN = 0.2
ICHARG = 0
ISMEAR = 1
ISPIN = 2
ISTART = 0
ISYM = -1
KPAR = 2
LAECHG = True
LCHARG = True
LDAU = False
LHFCALC = True
LMAXMIX = 4
LORBIT = 11
LREAL = False
LVHAR = True
LWAVE = True
MAGMOM = 4*0.0 2*-5.0 2*5.0 12*0.0
NCORE = 4
NELM = 100
NSW = 0
PREC = Accurate
PRECFOCK = Fast
SIGMA = 0.05
