Li1 Co1 O2
1.0
   4.7160416361652517   -1.4055658945191987   -0.0029096279908763
   4.7160416529978848    1.4055659538830927   -0.0029096054414223
   4.2986195426644933    0.0000000000000000    2.3955550811497957
Li Co O
1 1 2
direct
   0.9999998124293015    0.9999998054436432    0.9999999078524198 Li
   0.4999996956598878    0.4999996977008365    0.5000006032143460 Co
   0.7601143425737931    0.7601143540711064    0.7601177764047833 O
   0.2398861493370106    0.2398861427844139    0.2398817125284438 O
