Mn4 O8                                  
   1.00000000000000     
     2.9163310000000000    0.0000000000000000    0.0000000000000000
    -0.0000010000000000    4.5809660000000001    0.0001450000000000
     0.0000020000000000    0.0003000000000000    9.4343930000000000
   Mn   O 
     4     8
Direct
  0.2500007166027727  0.1046420206864359  0.8550742714344494
  0.7500051122272163  0.8953520571927865  0.1449315462252640
  0.7499961657548507  0.6046742145900613  0.6449149438816536
  0.2499970468813270  0.3953199807666870  0.3550861077459693
  0.2499982186433058  0.7439503695703092  0.5613242203016102
  0.7499993113033230  0.2439029376415317  0.9386527488660068
  0.2500039215468594  0.7560996317295707  0.0613465099559012
  0.7499995585032794  0.2560494470548713  0.4386777884262883
  0.2500023161965842  0.1412083008825832  0.2062354376574409
  0.2499984076491941  0.3588031053192185  0.7062231162955823
  0.7500002297702781  0.6412047074478159  0.2937733013882232
  0.7499989949210091  0.8587942271181258  0.7937610078216006
 
  0.00000000E+00  0.00000000E+00  0.00000000E+00
  0.00000000E+00  0.00000000E+00  0.00000000E+00
  0.00000000E+00  0.00000000E+00  0.00000000E+00
  0.00000000E+00  0.00000000E+00  0.00000000E+00
  0.00000000E+00  0.00000000E+00  0.00000000E+00
  0.00000000E+00  0.00000000E+00  0.00000000E+00
  0.00000000E+00  0.00000000E+00  0.00000000E+00
  0.00000000E+00  0.00000000E+00  0.00000000E+00
  0.00000000E+00  0.00000000E+00  0.00000000E+00
  0.00000000E+00  0.00000000E+00  0.00000000E+00
  0.00000000E+00  0.00000000E+00  0.00000000E+00
  0.00000000E+00  0.00000000E+00  0.00000000E+00
