Mn4 O8                                  
   1.00000000000000     
     2.9163310000000000    0.0000000000000000    0.0000000000000000
    -0.0000010000000000    4.5809660000000001    0.0001450000000000
     0.0000020000000000    0.0003000000000000    9.4343930000000000
   Mn   O 
     4     8
Direct
  0.2499979526551528  0.1004184363882243  0.8541427927173373
  0.7499961311979184  0.8995310056827425  0.1458783067551005
  0.7500028547666900  0.6004792393068319  0.6458491211916235
  0.2500042540559145  0.3996079064401713  0.3541632326936943
  0.2499975912706880  0.7427663012759566  0.5631981763597727
  0.7499989631425658  0.2428572873942749  0.9367739401732230
  0.2500019844277120  0.7571958136219059  0.0632400462086062
  0.7500006436060084  0.2571534265025645  0.4367954767156277
  0.2500002226950824  0.1486556970105461  0.2035198286306465
  0.2499993310241121  0.3513787301425808  0.7034864829814313
  0.7500008495685473  0.6486248767758147  0.2965018101613761
  0.7499992215896082  0.8513322794583841  0.7964517854115507
 
  0.00000000E+00  0.00000000E+00  0.00000000E+00
  0.00000000E+00  0.00000000E+00  0.00000000E+00
  0.00000000E+00  0.00000000E+00  0.00000000E+00
  0.00000000E+00  0.00000000E+00  0.00000000E+00
  0.00000000E+00  0.00000000E+00  0.00000000E+00
  0.00000000E+00  0.00000000E+00  0.00000000E+00
  0.00000000E+00  0.00000000E+00  0.00000000E+00
  0.00000000E+00  0.00000000E+00  0.00000000E+00
  0.00000000E+00  0.00000000E+00  0.00000000E+00
  0.00000000E+00  0.00000000E+00  0.00000000E+00
  0.00000000E+00  0.00000000E+00  0.00000000E+00
  0.00000000E+00  0.00000000E+00  0.00000000E+00
