ALGO = Fast
EDIFF = 1e-06
EDIFFG = -0.03
ENAUG = 1040
ENCUT = 520
GGA = Pe
IBRION = 2
ICHARG = 0
ISIF = 3
ISMEAR = 0
ISPIN = 1
ISTART = 0
ISYM = -1
LAECHG = True
LASPH = True
LCHARG = True
LORBIT = 0
LREAL = False
LVHAR = True
LWAVE = True
MAGMOM = 2*0.0
NBANDS = 9
NCORE = 4
NEDOS = 4000
NELM = 100
NSW = 0
PREC = Accurate
SIGMA = 0.01
