Li1 F1                                  
   1.00000000000000     
     0.0000036266838135    2.0288187759638441    2.0288187341956005
     2.0288187607763311    0.0000036344878852    2.0288187264485193
     2.0288188077140998    2.0288188150834512    0.0000035876202855
   Li   F 
     1     1
Direct
  0.0000000013499489  0.0000000063873486  0.0000000088609020
  0.4999999986500511  0.4999999936126514  0.4999999911390980
 
  0.00000000E+00  0.00000000E+00  0.00000000E+00
  0.00000000E+00  0.00000000E+00  0.00000000E+00
