Mn4 O8                                  
   1.00000000000000     
     2.8690974461662186   -0.0000191747238456    0.0000009895640949
    -0.0000352028132776    4.6048280311250576   -0.0001992204959205
     0.0000136830803176   -0.0004255070429898    9.2780972770319732
   Mn   O 
     4     8
Direct
  0.2499984670669093  0.0317494623205548  0.8640135670930320
  0.7500023333334838  0.9682523057634427  0.1359839482211953
  0.7499998399793881  0.5318107710637250  0.6359967967131652
  0.2499990363687132  0.4681935701135487  0.3640038833959949
  0.2500070527814557  0.7097687216491053  0.5336221069646214
  0.7500053462793375  0.2097986237336826  0.9663549384146393
  0.2499975400958121  0.7902009981777667  0.0336497957213382
  0.7499907065684326  0.2902341532305783  0.4663713586479616
  0.2500047625352906  0.1763409744537654  0.2219687125998320
  0.2499959514270600  0.3236456945023889  0.7219714861846001
  0.7500024723421745  0.6763563401944310  0.2780270968090335
  0.7499964912219639  0.8236493847970152  0.7780373092345911
 
  0.00000000E+00  0.00000000E+00  0.00000000E+00
  0.00000000E+00  0.00000000E+00  0.00000000E+00
  0.00000000E+00  0.00000000E+00  0.00000000E+00
  0.00000000E+00  0.00000000E+00  0.00000000E+00
  0.00000000E+00  0.00000000E+00  0.00000000E+00
  0.00000000E+00  0.00000000E+00  0.00000000E+00
  0.00000000E+00  0.00000000E+00  0.00000000E+00
  0.00000000E+00  0.00000000E+00  0.00000000E+00
  0.00000000E+00  0.00000000E+00  0.00000000E+00
  0.00000000E+00  0.00000000E+00  0.00000000E+00
  0.00000000E+00  0.00000000E+00  0.00000000E+00
  0.00000000E+00  0.00000000E+00  0.00000000E+00
