Mn4 O8                                  
   1.00000000000000     
     2.8690974461662186   -0.0000191747238456    0.0000009895640949
    -0.0000352028132776    4.6048280311250576   -0.0001992204959205
     0.0000136830803176   -0.0004255070429898    9.2780972770319732
   Mn   O 
     4     8
Direct
  0.2499984670669067  0.0317494623205526  0.8640135670930355
  0.7500023333334802  0.9682523057634439  0.1359839482211929
  0.7499998399793852  0.5318107710637238  0.6359967967131634
  0.2499990363687121  0.4681935701135495  0.3640038833959924
  0.2500070527814585  0.7097687216491035  0.5336221069646202
  0.7500053462793399  0.2097986237336794  0.9663549384146367
  0.2499975400958152  0.7902009981777640  0.0336497957213356
  0.7499907065684299  0.2902341532305790  0.4663713586479633
  0.2500047625352926  0.1763409744537643  0.2219687125998352
  0.2499959514270594  0.3236456945023878  0.7219714861845966
  0.7500024723421717  0.6763563401944344  0.2780270968090317
  0.7499964912219635  0.8236493847970159  0.7780373092345929
 
  0.00000000E+00  0.00000000E+00  0.00000000E+00
  0.00000000E+00  0.00000000E+00  0.00000000E+00
  0.00000000E+00  0.00000000E+00  0.00000000E+00
  0.00000000E+00  0.00000000E+00  0.00000000E+00
  0.00000000E+00  0.00000000E+00  0.00000000E+00
  0.00000000E+00  0.00000000E+00  0.00000000E+00
  0.00000000E+00  0.00000000E+00  0.00000000E+00
  0.00000000E+00  0.00000000E+00  0.00000000E+00
  0.00000000E+00  0.00000000E+00  0.00000000E+00
  0.00000000E+00  0.00000000E+00  0.00000000E+00
  0.00000000E+00  0.00000000E+00  0.00000000E+00
  0.00000000E+00  0.00000000E+00  0.00000000E+00
