ALGO = Fast
EDIFF = 1e-05
EDIFFG = -0.03
ENAUG = 800
ENCUT = 400
IBRION = 2
ISIF = 2
ISMEAR = 0
ISPIN = 2
ISYM = 0
LASPH = True
LMAXMIX = 4
LORBIT = 11
LREAL = Auto
LWAVE = True
MAGMOM = 2*0.0 2*-5.0 2*5.0 8*0.0
NELM = 100
NSW = 99
PREC = Accurate
SIGMA = 0.01
