ALGO = All
EDIFF = 1e-06
EDIFFG = -0.03
ENAUG = 1040
ENCUT = 520
ICHARG = 0
ISMEAR = -5
ISPIN = 2
ISTART = 1
ISYM = 0
KSPACING = 0.22
LAECHG = True
LASPH = True
LCHARG = True
LELF = False
LMAXMIX = 4
LMIXTAU = True
LORBIT = 11
LREAL = False
LVHAR = True
LVTOT = True
LWAVE = True
MAGMOM = 4*0.0
METAGGA = R2scan
NCORE = 4
NELM = 200
NSW = 0
PREC = Accurate
SIGMA = 0.05
