Ca8 Ru8 O28
1.0
0.000000 10.298082 10.298082
5.149041 0.000000 5.149041
5.149041 5.149041 0.000000
Ca Ru O
8 8 28
direct
0.312500 0.125000 0.625000 Ca
0.812500 0.125000 0.625000 Ca
0.312500 0.625000 0.125000 Ca
0.812500 0.625000 0.125000 Ca
0.062500 0.625000 0.625000 Ca
0.562500 0.625000 0.625000 Ca
0.312500 0.625000 0.625000 Ca
0.812500 0.625000 0.625000 Ca
0.312500 0.125000 0.125000 Ru
0.812500 0.125000 0.125000 Ru
0.062500 0.625000 0.125000 Ru
0.562500 0.625000 0.125000 Ru
0.062500 0.125000 0.625000 Ru
0.562500 0.125000 0.625000 Ru
0.062500 0.125000 0.125000 Ru
0.562500 0.125000 0.125000 Ru
0.096663 0.193327 0.806673 O
0.596664 0.193327 0.806673 O
0.096664 0.806673 0.193327 O
0.596664 0.806673 0.193327 O
0.221664 0.056673 0.056673 O
0.721664 0.056673 0.056673 O
0.096663 0.806673 0.806673 O
0.596664 0.806673 0.806673 O
0.028336 0.443327 0.443327 O
0.528336 0.443327 0.443327 O
0.403337 0.806673 0.193327 O
0.903337 0.806673 0.193327 O
0.221664 0.443327 0.056673 O
0.721664 0.443327 0.056673 O
0.250000 0.500000 0.500000 O
0.750000 0.500000 0.500000 O
0.028337 0.056673 0.443327 O
0.528336 0.056673 0.443327 O
0.221664 0.056673 0.443327 O
0.721664 0.056673 0.443327 O
0.028337 0.443327 0.056673 O
0.528336 0.443327 0.056673 O
0.375000 0.750000 0.750000 O
0.875000 0.750000 0.750000 O
0.403337 0.193327 0.806673 O
0.903337 0.193327 0.806673 O
0.403336 0.193327 0.193327 O
0.903336 0.193327 0.193327 O
