Al2 N2                                  
   1.00000000000000     
     1.5644329720529768   -2.7096773239562140    0.0000000052687924
     1.5644330045492880    2.7096773423105733   -0.0000000093320804
    -0.0000000060286613   -0.0000000113691710    5.0158283029367956
   Al   N 
     2     2
Direct
  0.6666667732499221  0.3333332938170983  0.4991352024832452
  0.3333332243652123  0.6666667076944037  0.9991352176468027
  0.6666665589422109  0.3333333577291526  0.8808647986314213
  0.3333334434426476  0.6666666407593382  0.3808647812385360
 
  0.00000000E+00  0.00000000E+00  0.00000000E+00
  0.00000000E+00  0.00000000E+00  0.00000000E+00
  0.00000000E+00  0.00000000E+00  0.00000000E+00
  0.00000000E+00  0.00000000E+00  0.00000000E+00
