ALGO = Fast
EDIFF = 1e-06
EDIFFG = -0.03
ENAUG = 1040
ENCUT = 520
IBRION = 2
ICHARG = 11
ISIF = 3
ISMEAR = 0
ISPIN = 2
ISYM = 0
LASPH = True
LCHARG = True
LMAXMIX = 4
LORBIT = 0
LREAL = False
LVHAR = True
LWAVE = True
MAGMOM = 2*0.0 2*-5.0 2*5.0 8*0.0
NELM = 100
NSW = 0
PREC = Accurate
SIGMA = 0.01
