Mn4 O8                                  
   1.00000000000000     
     2.9163310000000000    0.0000000000000000    0.0000000000000000
    -0.0000010000000000    4.5809660000000001    0.0001450000000000
     0.0000020000000000    0.0003000000000000    9.4343930000000000
   Mn   O 
     4     8
Direct
  0.2498969735243015  0.1401056591402686  0.8498913672323070
  0.7498899482258885  0.8599774058396522  0.1502806418209744
  0.7499650806757309  0.6398544978926956  0.6502928942373131
  0.2499831463880066  0.3599010452536210  0.3498630338504095
  0.2500252681516849  0.7662695324054222  0.5665710650606894
  0.7500713042657017  0.2659858126805669  0.9332401392196137
  0.2501201774734916  0.7337979848698039  0.0667134072776899
  0.7500005526206677  0.2339500884975211  0.4332950909970122
  0.2500170744307654  0.1210771365747909  0.2062922928715873
  0.2500073927204837  0.3790846768134539  0.7062250660972559
  0.7500003189295272  0.6210138096582696  0.2936557654333288
  0.7500227625937501  0.8789833503739314  0.7936802359018098
 
  0.00000000E+00  0.00000000E+00  0.00000000E+00
  0.00000000E+00  0.00000000E+00  0.00000000E+00
  0.00000000E+00  0.00000000E+00  0.00000000E+00
  0.00000000E+00  0.00000000E+00  0.00000000E+00
  0.00000000E+00  0.00000000E+00  0.00000000E+00
  0.00000000E+00  0.00000000E+00  0.00000000E+00
  0.00000000E+00  0.00000000E+00  0.00000000E+00
  0.00000000E+00  0.00000000E+00  0.00000000E+00
  0.00000000E+00  0.00000000E+00  0.00000000E+00
  0.00000000E+00  0.00000000E+00  0.00000000E+00
  0.00000000E+00  0.00000000E+00  0.00000000E+00
  0.00000000E+00  0.00000000E+00  0.00000000E+00
