Mn4 O8                                  
   1.00000000000000     
     2.9163310000000000    0.0000000000000000    0.0000000000000000
    -0.0000010000000000    4.5809660000000001    0.0001450000000000
     0.0000020000000000    0.0003000000000000    9.4343930000000000
   Mn   O 
     4     8
Direct
  0.2499909280180772  0.1455226963054743  0.8502364596531305
  0.7500218376975324  0.8545000175665376  0.1497482927162016
  0.7499808276357377  0.6455153319520796  0.6497627419452005
  0.2499785077287340  0.3544621275334138  0.3502451496266313
  0.2499869378381277  0.7648294339989430  0.5648764917114141
  0.7500173345985367  0.2647836533049034  0.9351104061755422
  0.2500469229713266  0.7351962938945049  0.0648716896728931
  0.7499817715025656  0.2351674984177479  0.4351315667662800
  0.2500171096141262  0.1166252729208097  0.2069743166615203
  0.2499891988675488  0.3833506981126753  0.7069543058450218
  0.7499950246713392  0.6166976005098138  0.2930610489704694
  0.7499935988563479  0.8833503754830939  0.7930285302556858
 
  0.00000000E+00  0.00000000E+00  0.00000000E+00
  0.00000000E+00  0.00000000E+00  0.00000000E+00
  0.00000000E+00  0.00000000E+00  0.00000000E+00
  0.00000000E+00  0.00000000E+00  0.00000000E+00
  0.00000000E+00  0.00000000E+00  0.00000000E+00
  0.00000000E+00  0.00000000E+00  0.00000000E+00
  0.00000000E+00  0.00000000E+00  0.00000000E+00
  0.00000000E+00  0.00000000E+00  0.00000000E+00
  0.00000000E+00  0.00000000E+00  0.00000000E+00
  0.00000000E+00  0.00000000E+00  0.00000000E+00
  0.00000000E+00  0.00000000E+00  0.00000000E+00
  0.00000000E+00  0.00000000E+00  0.00000000E+00
