Li8 Mn12 Fe4 O32
1.0
8.337842 0.000000 0.000000
0.000000 8.337842 0.000000
0.000000 0.000000 8.536673
Li Mn Fe O
8 12 4 32
direct
0.497666 0.747670 0.870453 Li
0.252330 0.502334 0.629547 Li
0.247670 0.002334 0.120453 Li
0.002334 0.247670 0.879547 Li
0.997666 0.752330 0.379547 Li
0.752330 0.997666 0.620453 Li
0.747670 0.497666 0.129547 Li
0.502334 0.252330 0.370453 Li
0.377341 0.123392 0.751712 Mn
0.376608 0.877341 0.501712 Mn
0.371594 0.628406 0.250000 Mn
0.128406 0.128406 0.500000 Mn
0.123392 0.377341 0.248288 Mn
0.122659 0.623392 0.998288 Mn
0.877341 0.376608 0.498288 Mn
0.876608 0.622659 0.748288 Mn
0.871594 0.871594 0.000000 Mn
0.628406 0.371594 0.750000 Mn
0.623392 0.122659 0.001712 Mn
0.622659 0.876608 0.251712 Mn
0.376374 0.376374 0.000000 Fe
0.123626 0.876374 0.750000 Fe
0.876374 0.123626 0.250000 Fe
0.623626 0.623626 0.500000 Fe
0.390867 0.355860 0.760513 O
0.391479 0.127946 0.979489 O
0.385792 0.866252 0.269971 O
0.372054 0.891479 0.729489 O
0.385758 0.649649 0.504871 O
0.366252 0.114208 0.519971 O
0.355860 0.390867 0.239487 O
0.350351 0.614242 0.995129 O
0.149649 0.114242 0.754871 O
0.144140 0.890867 0.510513 O
0.133748 0.614208 0.230029 O
0.114242 0.149649 0.245129 O
0.127946 0.391479 0.020511 O
0.114208 0.366252 0.480029 O
0.108521 0.627946 0.770511 O
0.109133 0.855860 0.989487 O
0.890867 0.144140 0.489487 O
0.891479 0.372054 0.270511 O
0.885792 0.633748 0.980029 O
0.872054 0.608521 0.520511 O
0.885758 0.850351 0.745129 O
0.866252 0.385792 0.730029 O
0.855860 0.109133 0.010513 O
0.850351 0.885758 0.254871 O
0.649649 0.385758 0.495129 O
0.644140 0.609133 0.739487 O
0.633748 0.885792 0.019971 O
0.614242 0.350351 0.004871 O
0.627946 0.108521 0.229489 O
0.614208 0.133748 0.769971 O
0.608521 0.872054 0.479489 O
0.609133 0.644140 0.260513 O
